(set-logic HORN)
(declare-fun state (Int Int (Array Int Int) (Array Int Int) Int Int Int Int Bool Bool Bool Bool (Array Int Int) Int Int Bool Int Bool Bool Int (Array Int Int) (Array Int Int) Bool Bool) Bool)
(assert (forall ((|.y.11| Int) (|.y.12| Int) (|main@%shadow.mem1.0_0_3| (Array Int Int)) (|main@%shadow.mem.0_0_3| (Array Int Int)) (|main@%tmp10.i_0_3| Int) (|main@%tmp8.i_0_3| Int) (|main@%i.1.i_0_1| Int) (|main@%tmp2.i_0_3| Int) (|.loc.13| Bool) (|.loc.14| Bool) (|main@bb36.i_0| Bool) (|main@%tmp47.i_0| Bool) (|main@%shadow.mem.1_1| (Array Int Int)) (|main@%tmp38.i_0_0| Int) (|main@%tmp45.i_0| Int) (|main@bb32.i_0_0| Bool) (|main@%tmp44.i_0| Int) (|main@bb42.i_0| Bool) (|tuple(main@bb42.i_0, main@bb53.i_0)| Bool) (|main@%tmp44.i_0_0| Int) (|main@%_5_0| (Array Int Int)) (|main@%shadow.mem.1_0| (Array Int Int)) (|main@%tmp41.i_0| Bool) (|tuple(main@bb36.i_0, main@bb53.i_0)| Bool) (|.loc.23| Bool) (|.y.20| Int) (|.y.21| Int) (|.y.17| (Array Int Int)) (|.y.18| (Array Int Int)) (|.y.19| Int) (|.y.22| Int) (|.loc.24| Bool) (|.y.15| Int) (|.y.16| Int) (|.xtv.1| Bool) (|.xtv.2| Bool) (|.xtv.3| (Array Int Int)) (|.xtv.4| Int) (|.xtv.5| Int) (|.xtv.6| Bool) (|.xtv.7| Int) (|.xtv.8| Bool) (|.xtv.9| Bool) (|.xtv.10| Int) (|.xtv.11| (Array Int Int)) (|.xtv.12| (Array Int Int)) (|.xtv.13| Bool) (|.xtv.14| Bool)) (=> (and (not .loc.13) (not .loc.14)) (state |.y.11| |.y.12| |main@%shadow.mem1.0_0_3| |main@%shadow.mem.0_0_3| |main@%tmp10.i_0_3| |main@%tmp8.i_0_3| |main@%i.1.i_0_1| |main@%tmp2.i_0_3| |.loc.13| |.loc.14| |main@bb36.i_0| |main@%tmp47.i_0| |main@%shadow.mem.1_1| |main@%tmp38.i_0_0| |main@%tmp45.i_0| |main@bb32.i_0_0| |main@%tmp44.i_0| |main@bb42.i_0| |tuple(main@bb42.i_0, main@bb53.i_0)| |main@%tmp44.i_0_0| |main@%_5_0| |main@%shadow.mem.1_0| |main@%tmp41.i_0| |tuple(main@bb36.i_0, main@bb53.i_0)|))))
(assert (forall ((|.y.11| Int) (|.y.12| Int) (|main@%shadow.mem1.0_0_3| (Array Int Int)) (|main@%shadow.mem.0_0_3| (Array Int Int)) (|main@%tmp10.i_0_3| Int) (|main@%tmp8.i_0_3| Int) (|main@%i.1.i_0_1| Int) (|main@%tmp2.i_0_3| Int) (|.loc.13| Bool) (|.loc.14| Bool) (|main@bb36.i_0| Bool) (|main@%tmp47.i_0| Bool) (|main@%shadow.mem.1_1| (Array Int Int)) (|main@%tmp38.i_0_0| Int) (|main@%tmp45.i_0| Int) (|main@bb32.i_0_0| Bool) (|main@%tmp44.i_0| Int) (|main@bb42.i_0| Bool) (|tuple(main@bb42.i_0, main@bb53.i_0)| Bool) (|main@%tmp44.i_0_0| Int) (|main@%_5_0| (Array Int Int)) (|main@%shadow.mem.1_0| (Array Int Int)) (|main@%tmp41.i_0| Bool) (|tuple(main@bb36.i_0, main@bb53.i_0)| Bool) (|.loc.23| Bool) (|.y.20| Int) (|.y.21| Int) (|.y.17| (Array Int Int)) (|.y.18| (Array Int Int)) (|.y.19| Int) (|.y.22| Int) (|.loc.24| Bool) (|.y.15| Int) (|.y.16| Int) (|.xtv.1| Bool) (|.xtv.2| Bool) (|.xtv.3| (Array Int Int)) (|.xtv.4| Int) (|.xtv.5| Int) (|.xtv.6| Bool) (|.xtv.7| Int) (|.xtv.8| Bool) (|.xtv.9| Bool) (|.xtv.10| Int) (|.xtv.11| (Array Int Int)) (|.xtv.12| (Array Int Int)) (|.xtv.13| Bool) (|.xtv.14| Bool)) (=> (and (state |.y.11| |.y.12| |main@%shadow.mem1.0_0_3| |main@%shadow.mem.0_0_3| |main@%tmp10.i_0_3| |main@%tmp8.i_0_3| |main@%i.1.i_0_1| |main@%tmp2.i_0_3| |.loc.13| |.loc.14| |main@bb36.i_0| |main@%tmp47.i_0| |main@%shadow.mem.1_1| |main@%tmp38.i_0_0| |main@%tmp45.i_0| |main@bb32.i_0_0| |main@%tmp44.i_0| |main@bb42.i_0| |tuple(main@bb42.i_0, main@bb53.i_0)| |main@%tmp44.i_0_0| |main@%_5_0| |main@%shadow.mem.1_0| |main@%tmp41.i_0| |tuple(main@bb36.i_0, main@bb53.i_0)|) (let ((.def_34 (not .loc.13))) (let ((.def_35 (not .loc.14))) (let ((.def_37 (select main@%shadow.mem1.0_0_3 main@%tmp38.i_0_0))) (let ((.def_54 (= (+ main@%tmp8.i_0_3 (+ main@%i.1.i_0_1 (* (- 1) main@%tmp38.i_0_0))) 0))) (let ((.def_56 (not (<= main@%tmp2.i_0_3 main@%i.1.i_0_1)))) (let ((.def_60 (<= main@%tmp8.i_0_3 0))) (let ((.def_61 (or (not (<= main@%tmp38.i_0_0 0)) .def_60))) (let ((.def_63 (not .def_60))) (let ((.def_68 (<= main@%tmp10.i_0_3 0))) (let ((.def_69 (or (not (<= main@%tmp44.i_0_0 0)) .def_68))) (let ((.def_71 (not .def_68))) (let ((.def_83 (not .loc.23))) (let ((.def_87 (<= main@%tmp2.i_0_3 .y.11))) (let ((.def_90 (= main@%shadow.mem1.0_0_3 .y.17))) (let ((.def_93 (= main@%shadow.mem.0_0_3 .y.18))) (let ((.def_96 (= main@%tmp10.i_0_3 .y.19))) (let ((.def_100 (= main@%tmp2.i_0_3 .y.22))) (let ((.def_105 (not main@bb42.i_0))) (let ((.def_119 (not main@bb36.i_0))) (let ((.def_129 (and main@bb36.i_0 |tuple(main@bb36.i_0, main@bb53.i_0)|))) (let ((.def_133 (and main@bb42.i_0 |tuple(main@bb42.i_0, main@bb53.i_0)|))) (let ((.def_139 (not |tuple(main@bb42.i_0, main@bb53.i_0)|))) (let ((.def_144 (and main@bb36.i_0 main@bb42.i_0))) (let ((.def_176 (= main@%tmp8.i_0_3 .y.20))) (let ((.def_192 (not .loc.24))) (let ((.def_204 (and main@bb36.i_0 main@%tmp47.i_0))) (let ((.def_205 (not .def_204))) (let ((.def_221 (and main@%tmp47.i_0 |tuple(main@bb42.i_0, main@bb53.i_0)|))) (let ((.def_227 (not main@%tmp47.i_0))) (let ((.def_229 (<= main@%i.1.i_0_1 0))) (let ((.def_243 (and main@%tmp47.i_0 main@bb32.i_0_0))) (or (or (and (or (or (and (and .def_34 (and .loc.14 (and (= .def_37 10) (and (not (= (select main@%shadow.mem.0_0_3 main@%tmp44.i_0_0) 20)) (and (and (and (= (+ main@%tmp10.i_0_3 (+ main@%i.1.i_0_1 (* (- 1) main@%tmp44.i_0_0))) 0) (and (and (and .def_54 .def_56) .def_61) .def_63)) .def_69) .def_71))))) .loc.23) (and (and (= main@%i.1.i_0_1 .y.20) (and (and (and (and (and (= .y.21 0) (and .def_35 (and .loc.13 .def_83))) .def_87) .def_90) .def_93) .def_96)) .def_100)) (and (and (or (= main@%tmp45.i_0 (select main@%shadow.mem.0_0_3 main@%tmp44.i_0)) .def_105) (and (or .def_71 .def_105) (and (or .def_105 (or .def_68 (not (<= main@%tmp44.i_0 0)))) (and (or .def_105 (= (+ main@%tmp10.i_0_3 (+ main@%i.1.i_0_1 (* (- 1) main@%tmp44.i_0))) 0)) (and (or (= main@%tmp41.i_0 (= main@%tmp44.i_0_0 10)) .def_119) (and (or .def_119 (= main@%tmp44.i_0_0 .def_37)) (and (or .def_63 .def_119) (and (or .def_61 .def_119) (and (or .def_54 .def_119) (and (= (+ main@%i.1.i_0_1 (* (- 1) .y.21)) (- 1)) (and .def_100 (and .def_96 (and .def_93 (and .def_90 (and .def_83 (and .def_34 (and .loc.14 (and .def_56 (and (or (not .def_129) (not main@%tmp41.i_0)) (and (or main@%tmp47.i_0 (not .def_133)) (and (or .def_129 .def_133) (and (or main@bb36.i_0 (not |tuple(main@bb36.i_0, main@bb53.i_0)|)) (and (or main@bb42.i_0 .def_139) (and (or .def_105 (= main@%tmp47.i_0 (= main@%tmp45.i_0 20))) (and (or main@%tmp41.i_0 (not .def_144)) (and (or .def_119 (and main@bb36.i_0 main@bb32.i_0_0)) (or .def_105 .def_144))))))))))))))))))))))))))) .def_176)) .loc.24) (and (= .y.11 .y.20) (and (not (<= .y.22 0)) (and (not (<= .y.21 0)) (and (not (<= .y.19 0)) (and (= .y.15 0) (and (and .def_35 (and .def_34 .loc.23)) .def_192))))))) (and (= main@%i.1.i_0_1 .y.21) (and (or .def_139 (= main@%shadow.mem.1_0 .y.18)) (and (or (= main@%shadow.mem.0_0_3 main@%shadow.mem.1_1) .def_205) (and (or .def_105 .def_205) (and (or .def_139 (= main@%_5_0 main@%shadow.mem.1_0)) (and (or |tuple(main@bb42.i_0, main@bb53.i_0)| .def_204) (and (or main@%tmp47.i_0 .def_119) (and (or .def_139 (= main@%_5_0 (store main@%shadow.mem.0_0_3 main@%tmp44.i_0_0 20))) (and (or .def_71 .def_139) (and (or .def_69 .def_139) (and (or .def_139 (= (+ .y.11 (+ main@%tmp10.i_0_3 (* (- 1) main@%tmp44.i_0_0))) 0)) (and (or main@bb42.i_0 (not .def_221)) (and (or .def_139 .def_221) (and (or (= main@bb42.i_0 (= main@%tmp38.i_0_0 10)) .def_227) (and (or .def_227 (not .def_229)) (and (or .def_227 (or .def_229 (not (<= main@%tmp45.i_0 0)))) (and (or .def_227 (= (+ .y.11 (+ main@%i.1.i_0_1 (* (- 1) main@%tmp45.i_0))) 0)) (and (or .def_227 (= main@%tmp8.i_0_3 main@%tmp44.i_0)) (and (or .def_227 .def_243) (and (or (not .def_243) (not .def_87)) (and (or .def_227 (= .y.17 (store main@%shadow.mem1.0_0_3 main@%tmp45.i_0 main@%tmp38.i_0_0))) (and (or .def_205 (= main@%shadow.mem.1_1 .y.18)) (and (= (+ .y.11 (* (- 1) .y.15)) (- 1)) (and .def_192 (and .def_176 (and .def_100 (and .def_96 (and .def_35 (and .loc.13 .loc.23)))))))))))))))))))))))))))))))))))))))))))))))))))))))))))))) (state |.y.15| |.y.16| |.y.17| |.y.18| |.y.19| |.y.20| |.y.21| |.y.22| |.loc.23| |.loc.24| |.xtv.1| |.xtv.2| |.xtv.3| |.xtv.4| |.xtv.5| |.xtv.6| |.xtv.7| |.xtv.8| |.xtv.9| |.xtv.10| |.xtv.11| |.xtv.12| |.xtv.13| |.xtv.14|))))
(assert (forall ((|.y.11| Int) (|.y.12| Int) (|main@%shadow.mem1.0_0_3| (Array Int Int)) (|main@%shadow.mem.0_0_3| (Array Int Int)) (|main@%tmp10.i_0_3| Int) (|main@%tmp8.i_0_3| Int) (|main@%i.1.i_0_1| Int) (|main@%tmp2.i_0_3| Int) (|.loc.13| Bool) (|.loc.14| Bool) (|main@bb36.i_0| Bool) (|main@%tmp47.i_0| Bool) (|main@%shadow.mem.1_1| (Array Int Int)) (|main@%tmp38.i_0_0| Int) (|main@%tmp45.i_0| Int) (|main@bb32.i_0_0| Bool) (|main@%tmp44.i_0| Int) (|main@bb42.i_0| Bool) (|tuple(main@bb42.i_0, main@bb53.i_0)| Bool) (|main@%tmp44.i_0_0| Int) (|main@%_5_0| (Array Int Int)) (|main@%shadow.mem.1_0| (Array Int Int)) (|main@%tmp41.i_0| Bool) (|tuple(main@bb36.i_0, main@bb53.i_0)| Bool) (|.loc.23| Bool) (|.y.20| Int) (|.y.21| Int) (|.y.17| (Array Int Int)) (|.y.18| (Array Int Int)) (|.y.19| Int) (|.y.22| Int) (|.loc.24| Bool) (|.y.15| Int) (|.y.16| Int) (|.xtv.1| Bool) (|.xtv.2| Bool) (|.xtv.3| (Array Int Int)) (|.xtv.4| Int) (|.xtv.5| Int) (|.xtv.6| Bool) (|.xtv.7| Int) (|.xtv.8| Bool) (|.xtv.9| Bool) (|.xtv.10| Int) (|.xtv.11| (Array Int Int)) (|.xtv.12| (Array Int Int)) (|.xtv.13| Bool) (|.xtv.14| Bool)) (=> (state |.y.11| |.y.12| |main@%shadow.mem1.0_0_3| |main@%shadow.mem.0_0_3| |main@%tmp10.i_0_3| |main@%tmp8.i_0_3| |main@%i.1.i_0_1| |main@%tmp2.i_0_3| |.loc.13| |.loc.14| |main@bb36.i_0| |main@%tmp47.i_0| |main@%shadow.mem.1_1| |main@%tmp38.i_0_0| |main@%tmp45.i_0| |main@bb32.i_0_0| |main@%tmp44.i_0| |main@bb42.i_0| |tuple(main@bb42.i_0, main@bb53.i_0)| |main@%tmp44.i_0_0| |main@%_5_0| |main@%shadow.mem.1_0| |main@%tmp41.i_0| |tuple(main@bb36.i_0, main@bb53.i_0)|) (not (and .loc.13 .loc.14)))))
(check-sat)
